EjemplosPL/ficheros/bufete.lp
Minimize

T_0


Subject To

a0: x_0_0 + x_1_0 + x_2_0 + x_3_0 + x_4_0 + x_5_0 + x_6_0 + x_7_0 + x_8_0 + x_9_0 = 1
a1: x_0_1 + x_1_1 + x_2_1 + x_3_1 + x_4_1 + x_5_1 + x_6_1 + x_7_1 + x_8_1 + x_9_1 = 1
a2: x_0_2 + x_1_2 + x_2_2 + x_3_2 + x_4_2 + x_5_2 + x_6_2 + x_7_2 + x_8_2 + x_9_2 = 1
a3: x_0_3 + x_1_3 + x_2_3 + x_3_3 + x_4_3 + x_5_3 + x_6_3 + x_7_3 + x_8_3 + x_9_3 = 1
a4: x_0_4 + x_1_4 + x_2_4 + x_3_4 + x_4_4 + x_5_4 + x_6_4 + x_7_4 + x_8_4 + x_9_4 = 1
a5: x_0_5 + x_1_5 + x_2_5 + x_3_5 + x_4_5 + x_5_5 + x_6_5 + x_7_5 + x_8_5 + x_9_5 = 1
a6: x_0_6 + x_1_6 + x_2_6 + x_3_6 + x_4_6 + x_5_6 + x_6_6 + x_7_6 + x_8_6 + x_9_6 = 1
a7: x_0_7 + x_1_7 + x_2_7 + x_3_7 + x_4_7 + x_5_7 + x_6_7 + x_7_7 + x_8_7 + x_9_7 = 1
a8: x_0_8 + x_1_8 + x_2_8 + x_3_8 + x_4_8 + x_5_8 + x_6_8 + x_7_8 + x_8_8 + x_9_8 = 1
a9: x_0_9 + x_1_9 + x_2_9 + x_3_9 + x_4_9 + x_5_9 + x_6_9 + x_7_9 + x_8_9 + x_9_9 = 1
a10: x_0_10 + x_1_10 + x_2_10 + x_3_10 + x_4_10 + x_5_10 + x_6_10 + x_7_10 + x_8_10 + x_9_10 = 1
a11: x_0_11 + x_1_11 + x_2_11 + x_3_11 + x_4_11 + x_5_11 + x_6_11 + x_7_11 + x_8_11 + x_9_11 = 1
a12: x_0_12 + x_1_12 + x_2_12 + x_3_12 + x_4_12 + x_5_12 + x_6_12 + x_7_12 + x_8_12 + x_9_12 = 1
a13: x_0_13 + x_1_13 + x_2_13 + x_3_13 + x_4_13 + x_5_13 + x_6_13 + x_7_13 + x_8_13 + x_9_13 = 1
a14: x_0_14 + x_1_14 + x_2_14 + x_3_14 + x_4_14 + x_5_14 + x_6_14 + x_7_14 + x_8_14 + x_9_14 = 1
a15: x_0_15 + x_1_15 + x_2_15 + x_3_15 + x_4_15 + x_5_15 + x_6_15 + x_7_15 + x_8_15 + x_9_15 = 1
a16: x_0_16 + x_1_16 + x_2_16 + x_3_16 + x_4_16 + x_5_16 + x_6_16 + x_7_16 + x_8_16 + x_9_16 = 1
a17: x_0_17 + x_1_17 + x_2_17 + x_3_17 + x_4_17 + x_5_17 + x_6_17 + x_7_17 + x_8_17 + x_9_17 = 1
a18: x_0_18 + x_1_18 + x_2_18 + x_3_18 + x_4_18 + x_5_18 + x_6_18 + x_7_18 + x_8_18 + x_9_18 = 1
a19: x_0_19 + x_1_19 + x_2_19 + x_3_19 + x_4_19 + x_5_19 + x_6_19 + x_7_19 + x_8_19 + x_9_19 = 1
b0: 1 x_0_0 + 2 x_0_1 + 3 x_0_2 + 5 x_0_3 + 1 x_0_4 + 2 x_0_5 + 3 x_0_6 + 5 x_0_7 + 1 x_0_8 + 2 x_0_9 + 3 x_0_10 + 5 x_0_11 + 1 x_0_12 + 2 x_0_13 + 3 x_0_14 + 5 x_0_15 + 1 x_0_16 + 2 x_0_17 + 3 x_0_18 + 5 x_0_19 - T_0 < 0
b1: 1 x_1_0 + 2 x_1_1 + 3 x_1_2 + 5 x_1_3 + 2 x_1_4 + 3 x_1_5 + 5 x_1_6 + 4 x_1_7 + 3 x_1_8 + 2 x_1_9 + 1 x_1_10 + 1 x_1_11 + 2 x_1_12 + 3 x_1_13 + 5 x_1_14 + 2 x_1_15 + 3 x_1_16 + 5 x_1_17 + 4 x_1_18 + 3 x_1_19 - T_0 < 0
b2: 1 x_2_0 + 2 x_2_1 + 3 x_2_2 + 5 x_2_3 + 1 x_2_4 + 2 x_2_5 + 5 x_2_6 + 4 x_2_7 + 4 x_2_8 + 5 x_2_9 + 6 x_2_10 + 7 x_2_11 + 8 x_2_12 + 9 x_2_13 + 7 x_2_14 + 5 x_2_15 + 4 x_2_16 + 3 x_2_17 + 2 x_2_18 + 1 x_2_19 - T_0 < 0
b3: 1 x_3_0 + 2 x_3_1 + 3 x_3_2 + 5 x_3_3 + 1 x_3_4 + 3 x_3_5 + 5 x_3_6 + 4 x_3_7 + 4 x_3_8 + 5 x_3_9 + 6 x_3_10 + 7 x_3_11 + 8 x_3_12 + 9 x_3_13 + 7 x_3_14 + 5 x_3_15 + 4 x_3_16 + 3 x_3_17 + 2 x_3_18 + 1 x_3_19 - T_0 < 0
b4: 5 x_4_0 + 4 x_4_1 + 3 x_4_2 + 2 x_4_3 + 1 x_4_4 + 5 x_4_5 + 4 x_4_6 + 3 x_4_7 + 2 x_4_8 + 1 x_4_9 + 5 x_4_10 + 4 x_4_11 + 3 x_4_12 + 2 x_4_13 + 1 x_4_14 + 9 x_4_15 + 8 x_4_16 + 7 x_4_17 + 5 x_4_18 + 4 x_4_19 - T_0 < 0
b5: 5 x_5_0 + 4 x_5_1 + 3 x_5_2 + 2 x_5_3 + 1 x_5_4 + 9 x_5_5 + 8 x_5_6 + 7 x_5_7 + 6 x_5_8 + 5 x_5_9 + 6 x_5_10 + 7 x_5_11 + 8 x_5_12 + 9 x_5_13 + 8 x_5_14 + 7 x_5_15 + 6 x_5_16 + 5 x_5_17 + 2 x_5_18 + 1 x_5_19 - T_0 < 0
b6: 5 x_6_0 + 4 x_6_1 + 3 x_6_2 + 2 x_6_3 + 1 x_6_4 + 1 x_6_5 + 1 x_6_6 + 2 x_6_7 + 3 x_6_8 + 3 x_6_9 + 4 x_6_10 + 5 x_6_11 + 6 x_6_12 + 7 x_6_13 + 8 x_6_14 + 9 x_6_15 + 8 x_6_16 + 1 x_6_17 + 2 x_6_18 + 1 x_6_19 - T_0 < 0
b7: 5 x_7_0 + 4 x_7_1 + 3 x_7_2 + 2 x_7_3 + 1 x_7_4 + 7 x_7_5 + 8 x_7_6 + 9 x_7_7 + 6 x_7_8 + 5 x_7_9 + 4 x_7_10 + 3 x_7_11 + 2 x_7_12 + 1 x_7_13 + 4 x_7_14 + 5 x_7_15 + 6 x_7_16 + 7 x_7_17 + 8 x_7_18 + 2 x_7_19 - T_0 < 0
b8: 1 x_8_0 + 3 x_8_1 + 5 x_8_2 + 4 x_8_3 + 6 x_8_4 + 7 x_8_5 + 6 x_8_6 + 7 x_8_7 + 6 x_8_8 + 7 x_8_9 + 8 x_8_10 + 9 x_8_11 + 9 x_8_12 + 7 x_8_13 + 6 x_8_14 + 5 x_8_15 + 4 x_8_16 + 4 x_8_17 + 2 x_8_18 + 1 x_8_19 - T_0 < 0
b9: 1 x_9_0 + 3 x_9_1 + 5 x_9_2 + 4 x_9_3 + 2 x_9_4 + 3 x_9_5 + 4 x_9_6 + 5 x_9_7 + 2 x_9_8 + 3 x_9_9 + 4 x_9_10 + 6 x_9_11 + 5 x_9_12 + 8 x_9_13 + 7 x_9_14 + 9 x_9_15 + 5 x_9_16 + 4 x_9_17 + 3 x_9_18 + 1 x_9_19 - T_0 < 0




Binary

x_0_0 x_0_1 x_0_2 x_0_3 x_0_4 x_0_5 x_0_6 x_0_7 x_0_8 x_0_9 x_0_10 x_0_11 x_0_12 x_0_13 x_0_14 x_0_15 x_0_16 x_0_17 x_0_18 x_0_19 x_1_0 x_1_1 x_1_2 x_1_3 x_1_4 x_1_5 x_1_6 x_1_7 x_1_8 x_1_9 x_1_10 x_1_11 x_1_12 x_1_13 x_1_14 x_1_15 x_1_16 x_1_17 x_1_18 x_1_19 x_2_0 x_2_1 x_2_2 x_2_3 x_2_4 x_2_5 x_2_6 x_2_7 x_2_8 x_2_9 x_2_10 x_2_11 x_2_12 x_2_13 x_2_14 x_2_15 x_2_16 x_2_17 x_2_18 x_2_19 x_3_0 x_3_1 x_3_2 x_3_3 x_3_4 x_3_5 x_3_6 x_3_7 x_3_8 x_3_9 x_3_10 x_3_11 x_3_12 x_3_13 x_3_14 x_3_15 x_3_16 x_3_17 x_3_18 x_3_19 x_4_0 x_4_1 x_4_2 x_4_3 x_4_4 x_4_5 x_4_6 x_4_7 x_4_8 x_4_9 x_4_10 x_4_11 x_4_12 x_4_13 x_4_14 x_4_15 x_4_16 x_4_17 x_4_18 x_4_19 x_5_0 x_5_1 x_5_2 x_5_3 x_5_4 x_5_5 x_5_6 x_5_7 x_5_8 x_5_9 x_5_10 x_5_11 x_5_12 x_5_13 x_5_14 x_5_15 x_5_16 x_5_17 x_5_18 x_5_19 x_6_0 x_6_1 x_6_2 x_6_3 x_6_4 x_6_5 x_6_6 x_6_7 x_6_8 x_6_9 x_6_10 x_6_11 x_6_12 x_6_13 x_6_14 x_6_15 x_6_16 x_6_17 x_6_18 x_6_19 x_7_0 x_7_1 x_7_2 x_7_3 x_7_4 x_7_5 x_7_6 x_7_7 x_7_8 x_7_9 x_7_10 x_7_11 x_7_12 x_7_13 x_7_14 x_7_15 x_7_16 x_7_17 x_7_18 x_7_19 x_8_0 x_8_1 x_8_2 x_8_3 x_8_4 x_8_5 x_8_6 x_8_7 x_8_8 x_8_9 x_8_10 x_8_11 x_8_12 x_8_13 x_8_14 x_8_15 x_8_16 x_8_17 x_8_18 x_8_19 x_9_0 x_9_1 x_9_2 x_9_3 x_9_4 x_9_5 x_9_6 x_9_7 x_9_8 x_9_9 x_9_10 x_9_11 x_9_12 x_9_13 x_9_14 x_9_15 x_9_16 x_9_17 x_9_18 x_9_19

 


End
