EjemplosPL/ficheros/bufete.txt
Abogado_00: 1,2,3,5,1,2,3,5,1,2,3,5,1,2,3,5,1,2,3,5
Abogado_01: 1,2,3,5,2,3,5,4,3,2,1,1,2,3,5,2,3,5,4,3
Abogado_02: 1,2,3,5,1,2,5,4,4,5,6,7,8,9,7,5,4,3,2,1
Abogado_03: 1,2,3,5,1,3,5,4,4,5,6,7,8,9,7,5,4,3,2,1
Abogado_04: 5,4,3,2,1,5,4,3,2,1,5,4,3,2,1,9,8,7,5,4
Abogado_05: 5,4,3,2,1,9,8,7,6,5,6,7,8,9,8,7,6,5,2,1
Abogado_06: 5,4,3,2,1,1,1,2,3,3,4,5,6,7,8,9,8,1,2,1
Abogado_07: 5,4,3,2,1,7,8,9,6,5,4,3,2,1,4,5,6,7,8,2
Abogado_08: 1,3,5,4,6,7,6,7,6,7,8,9,9,7,6,5,4,4,2,1
Abogado_09: 1,3,5,4,2,3,4,5,2,3,4,6,5,8,7,9,5,4,3,1